networks/zoo_106_1103/zoo_106_1103-lower.txt
Number of groups: 47
Flow 1: {1 2 0} {2 55 0} 
Flow 2: {1 7 0} {7 5 0} {5 6 0} {6 59 0} 
Flow 3: {7 60 0} 
Flow 4: {5 9 0} {9 62 0} 
Flow 5: {2 11 0} {11 64 0} 
Flow 6: {2 50 0} {50 13 0} {13 66 0} 
Flow 7: {5 38 0} {38 35 0} {35 15 0} {15 68 0} 
Flow 8: {35 16 0} {16 69 0} 
Flow 9: {16 17 0} {17 70 0} 
Flow 10: {35 18 0} {18 71 0} 
Flow 11: {9 19 0} {19 72 0} 
Flow 12: {43 20 0} {20 73 0} 
Flow 12: {38 43 0} Flow 13: {20 21 0} {21 74 0} 
Flow 14: {42 23 0} {23 76 0} 
Flow 14: {35 42 0} Flow 15: {11 12 0} {12 47 0} {47 25 0} {25 78 0} 
Flow 16: {9 31 0} {31 84 0} 
Flow 17: {35 33 0} {33 86 0} 
Flow 18: {35 88 0} 
Flow 19: {38 36 0} {36 89 0} 
Flow 20: {38 24 0} {24 37 0} {37 90 0} 
Flow 21: {5 39 0} {39 92 0} 
Flow 22: {38 40 0} {40 93 0} 
Flow 23: {42 95 0} 
Flow 24: {43 96 0} 
Flow 25: {2 53 0} {53 44 0} {44 97 0} 
Flow 26: {47 100 0} 
Flow 27: {50 103 0} 
Flow 28: {53 52 0} {52 105 0} 
Flow 29: {53 106 0} 
Flow 30: {2 1 0} {1 54 0} 
Flow 31: {7 3 0} {3 4 0} {4 57 0} 
Flow 34: {7 8 0} {8 61 0} 
Flow 36: {39 10 0} {10 63 0} 
Flow 38: {12 65 0} 
Flow 40: {23 14 0} {14 67 0} 
Flow 49: {24 77 0} 
Flow 51: {9 26 0} {26 79 0} 
Flow 62: {2 45 0} {45 98 0} 
Flow 64: {51 48 0} {48 101 0} 
Flow 64: {50 51 0} Flow 65: {13 49 0} {49 102 0} 
Flow 69: {5 7 0} {7 1 0} Flow 75: {36 25 0} {25 47 0} {47 12 0} Flow 102: {6 5 0} Flow 106: {6 8 0} Flow 107: {6 9 0} Flow 108: {6 10 0} Flow 112: {6 35 0} Flow 117: {35 19 0} Flow 119: {23 21 0} Flow 130: {35 40 0} Flow 136: {47 48 0} Flow 137: {12 49 0} Flow 143: {8 7 0} Flow 146: {8 6 0} Flow 148: {8 5 0} Flow 179: {9 5 0} Flow 181: {9 6 0} Flow 186: {9 35 0} Flow 211: {10 6 0} Flow 215: {10 39 0} {39 38 0} Flow 225: {12 11 0} {11 2 0} Flow 230: {11 13 0} Flow 231: {25 36 0} {36 42 0} {42 35 0} Flow 233: {36 43 0} Flow 240: {36 37 0} Flow 241: {36 38 0} {38 39 0} Flow 249: {13 11 0} Flow 269: {13 50 0} {50 53 0} Flow 271: {51 52 0} Flow 273: {15 35 0} {35 6 0} Flow 276: {35 9 0} Flow 279: {15 16 0} Flow 283: {42 43 0} Flow 285: {42 36 0} Flow 291: {35 38 0} Flow 300: {16 35 0} Flow 308: {16 15 0} Flow 310: {17 18 0} Flow 317: {16 33 0} Flow 322: {16 34 0} {34 40 0} Flow 331: {17 16 0} Flow 338: {18 19 0} Flow 356: {19 9 0} Flow 358: {18 17 0} Flow 359: {18 35 0} Flow 371: {19 35 0} Flow 372: {19 18 0} Flow 391: {21 20 0} {20 43 0} {43 38 0} {38 5 0} Flow 392: {21 23 0} {23 42 0} Flow 395: {43 36 0} Flow 412: {48 51 0} {52 44 0} Flow 414: {47 46 0} {46 45 0} {45 50 0} Flow 417: {22 43 0} Flow 423: {22 21 0} Flow 431: {43 42 0} Flow 490: {26 9 0} Flow 491: {28 6 0} Flow 508: {28 31 0} Flow 523: {29 6 0} Flow 540: {29 31 0} Flow 555: {31 9 0} Flow 590: {32 47 0} Flow 591: {32 25 0} Flow 614: {32 48 0} Flow 616: {51 50 0} Flow 619: {34 35 0} Flow 625: {34 16 0} Flow 664: {43 22 0} {22 75 0} 
Flow 669: {33 27 0} {27 80 0} 
Flow 672: {35 34 0} {34 87 0} 
Flow 675: {38 91 0} 
Flow 678: {40 41 0} {41 94 0} 
Flow 683: {46 99 0} 
Flow 720: {37 24 0} {24 38 0} Flow 724: {37 36 0} Flow 749: {5 8 0} Flow 785: {39 5 0} Flow 811: {40 38 0} Flow 814: {40 35 0} Flow 824: {40 34 0} Flow 850: {41 40 0} Flow 854: {41 42 0} Flow 912: {44 53 0} {53 2 0} Flow 918: {53 50 0} Flow 924: {44 52 0} {52 51 0} {48 32 0} Flow 938: {48 47 0} Flow 942: {45 2 0} Flow 951: {45 46 0} {46 47 0} Flow 1004: {50 2 0} Flow 1013: {49 12 0} Flow 1018: {49 13 0} Flow 1051: {50 45 0} Flow 1066: {32 85 0} 
Flow 1087: {52 53 0} Time taken running everything: 0 seconds
